8015985
64,93,108,49,86,9,33,74,48,91,19,105,6,85,4,68,8,63,56,98,58,21,17,107,45,42,52,81,84,16,67,71,102,37,7,97,77,65,18,36,38,57,41,44,59,92,61,103,20,5,1,109,96,101,29,94,82,43,39,70,10,15,27,87,14,99,35,40,13,78,51,31,47,23,88,62,89,46,66,34,2,32,53,80,22,104,24,54,11,106,95,90,75,60,69,55,26,76,12,73,72,83,25,100,3,79,30,28,50